(set-logic LIA)

(synth-fun findPublicKey ( (__iv__input_0_ Int) (__iv__input_1_ Int) (__iv__input_2_ Int) (__iv__input_3_ Int) (__iv__input_4_ Int) (__iv__input_5_ Int) (__iv__input_6_ Int) (__iv__input_7_ Int) (__iv__input_8_ Int) (__iv__input_9_ Int) (__iv__input_10_ Int) (__iv__input_11_ Int) (__iv__input_12_ Int) (__iv__input_13_ Int)) Int
((Start Int (ntInt))
(ntInt Int (
	0 1 2 3 -1 5 
	__iv__input_0_ __iv__input_1_ __iv__input_2_ __iv__input_3_ __iv__input_4_ __iv__input_5_ __iv__input_6_ __iv__input_7_ __iv__input_8_ __iv__input_9_ __iv__input_10_ __iv__input_11_ __iv__input_12_ __iv__input_13_ 
	(* ntInt ntInt)
	(ite ntBool ntInt ntInt)
	(+ ntInt ntInt)
	(- ntInt ntInt)
))
(ntBool Bool (
	(not ntBool)
	(or ntBool ntBool)
	(and ntBool ntBool)
	(< ntInt ntInt)
	(= ntInt ntInt)
	(>= ntInt ntInt)
))
))

(constraint (=(findPublicKey 0 0 0 0 -1 0 16 0 -11 2 11 -1 3 -26) 0))
(constraint (=(findPublicKey -51 2 46 0 -56 28 15 35 -14 10 5 -72 -11 -9) 0))
(constraint (=(findPublicKey 20 2 0 0 0 -16 -8 13 0 34 30 -24 1 0) 20))
(constraint (=(findPublicKey 20 0 0 0 0 -16 0 0 0 0 0 0 1 0) 20))
(constraint (=(findPublicKey 0 8 -19 11 10 -11 0 0 -15 -43 0 -1 3 -1) -43))
(constraint (=(findPublicKey -18 -27 0 16 -43 -13 6 -1 -6 -9 0 0 2 -1) -13))
(constraint (=(findPublicKey 76 0 -53 0 0 16 0 -3 26 0 -2 -19 2 -15) 0))
(constraint (=(findPublicKey -40 4 26 0 5 0 0 -13 27 22 -15 0 1 3) 0))
(constraint (=(findPublicKey -22 0 0 24 -46 17 -57 13 0 10 0 0 3 0) 0))
(constraint (=(findPublicKey -22 32 -14 6 -8 9 17 6 -8 -13 26 38 44 -51) 0))
(constraint (=(findPublicKey -48 -1 1 -29 -45 -22 13 -6 0 -66 0 -45 2 5) 0))
(constraint (=(findPublicKey 78 -17 0 1 28 5 0 -2 -15 42 -34 -2 4 11) 0))
(constraint (=(findPublicKey -8 13 0 0 -29 0 0 0 0 0 -21 0 1 -1) 0))
(constraint (=(findPublicKey -19 -28 -13 30 -24 0 -4 0 -12 14 0 -25 1 -4) 0))
(constraint (=(findPublicKey 0 0 0 0 -16 17 0 -8 1 0 -44 -11 -1 0) 0))
(constraint (=(findPublicKey -16 0 0 -1 0 52 26 0 0 0 0 0 1 -1) 0))
(constraint (=(findPublicKey -19 -15 -25 17 0 21 -11 -5 0 0 0 15 1 0) 0))
(constraint (=(findPublicKey 12 0 0 25 -23 0 6 -59 -24 30 25 0 2 0) 0))
(constraint (=(findPublicKey -21 -23 24 0 -11 -18 -55 0 0 -15 0 0 1 -18) 0))
(constraint (=(findPublicKey -51 27 46 0 -70 28 15 23 -7 10 5 -46 -11 -9) 0))
(constraint (=(findPublicKey -29 59 7 42 -75 19 -31 -24 37 -22 -38 -2 -31 75) 0))
(constraint (=(findPublicKey 0 29 -2 0 22 0 0 0 0 -6 -13 -13 2 0) 22))
(constraint (=(findPublicKey -31 13 44 48 -45 -12 -12 30 -5 -53 10 -30 2 0) 0))
(check-synth)